p cnf 30 17
r 0.333 30 0
e 15 0
r 0.953 29 0
e 14 0
r 0.405 28 0
e 13 0
r 0.592 27 0
e 12 0
r 0.115 26 0
e 11 0
r 0.199 25 0
e 10 0
r 0.972 24 0
e 9 0
r 0.571 23 0
e 8 0
r 0.341 22 0
e 7 0
r 0.61 21 0
e 6 0
r 0.355 20 0
e 5 0
r 0.292 19 0
e 4 0
r 0.416 18 0
e 3 0
r 0.179 17 0
e 2 0
r 0.432 16 0
e 1 0
-15 0
15 29 -14 -28 -13 0
14 28 -13 -27 -12 0
13 27 -12 -26 -11 0
12 26 -11 -25 -10 0
11 25 -10 -24 -9 0
10 24 -9 -23 -8 0
9 23 -8 -22 -7 0
8 22 -7 -21 -6 0
7 21 -6 -20 -5 0
6 20 -5 -19 -4 0
5 19 -4 -18 -3 0
4 18 -3 -17 -2 0
3 17 -2 -16 -1 0
2 1 0
2 -1 0
-2 1 0
